\ENCODING=ISO-8859-1
\Problem name: ilog.cplex

Minimize
 obj1: 97830 x1 + 103025 x2 + 96585 x3 + 107228 x4 + 94814 x5 + 100657 x6
       + 97312 x7 + 91378 x8 + 99709 x9 + 102268 x10 + 98608 x11 + 109147 x12
       + 103890 x13 + 103838 x14 + 97933 x15 + 99538 x16 + 97798 x17
       + 98198 x18 + 90498 x19 + 96361 x20 + 92378 x21 + 95774 x22 + 95798 x23
       + 99409 x24 + 99469 x25 + 101630 x26 + 92852 x27 + 95131 x28 + 95497 x29
       + 96788 x30 + 94532 x31 + 92440 x32 + 98808 x33 + 107319 x34
       + 107670 x35 + 97619 x36 + 102552 x37 + 90779 x38 + 97470 x39
       + 91210 x40 + 102232 x41 + 106333 x42 + 102340 x43 + 109313 x44
       + 99865 x45 + 102246 x46 + 108338 x47 + 91901 x48 + 95165 x49
       + 92430 x50 + 91250 x51 + 101570 x52 + 108237 x53 + 102340 x54
       + 108672 x55 + 97544 x56 + 97969 x57 + 103746 x58 + 94505 x59
       + 91839 x60 + 97122 x61 + 104340 x62 + 106149 x63 + 98171 x64
       + 99156 x65 + 90930 x66 + 101475 x67 + 95256 x68 + 90594 x69
       + 100371 x70 + 109563 x71 + 105536 x72 + 107476 x73 + 108975 x74
       + 108627 x75 + 98824 x76 + 94933 x77 + 107475 x78 + 93603 x79
       + 93803 x80 + 94427 x81 + 103437 x82 + 107229 x83 + 99759 x84
       + 91244 x85 + 97393 x86 + 103845 x87 + 95697 x88 + 108066 x89
       + 107371 x90 + 96701 x91 + 92545 x92 + 98048 x93 + 92464 x94
       + 105065 x95 + 90431 x96 + 99211 x97 + 107663 x98 + 93547 x99
       + 104900 x100 + 100807 x101 + 109378 x102 + 102760 x103 + 93471 x104
       + 101928 x105 + 103914 x106 + 107838 x107 + 107057 x108 + 92768 x109
       + 109613 x110 + 109299 x111 + 99573 x112 + 99753 x113 + 107475 x114
       + 99354 x115 + 93413 x116 + 107205 x117 + 104750 x118 + 96019 x119
       + 98534 x120 + 98497 x121 + 106140 x122 + 109879 x123 + 97596 x124
       + 108111 x125 + 105293 x126 + 106653 x127 + 91836 x128 + 94203 x129
       + 95609 x130 + 103295 x131 + 100025 x132 + 93562 x133 + 90247 x134
       + 106338 x135 + 92996 x136 + 100253 x137 + 102572 x138 + 95685 x139
       + 108528 x140 + 108262 x141 + 108609 x142 + 101904 x143 + 92924 x144
       + 104832 x145 + 93523 x146 + 97015 x147 + 96723 x148 + 94855 x149
       + 105723 x150 + 103760 x151 + 98147 x152 + 97359 x153 + 99894 x154
       + 94314 x155 + 103392 x156 + 91371 x157 + 108506 x158 + 100975 x159
       + 98985 x160 + 100334 x161 + 100327 x162 + 98561 x163 + 108148 x164
       + 91800 x165 + 103996 x166 + 101108 x167 + 90496 x168 + 92228 x169
       + 94881 x170 + 103881 x171 + 102367 x172 + 95532 x173 + 104257 x174
       + 95819 x175 + 103710 x176 + 98358 x177 + 91274 x178 + 107244 x179
       + 96680 x180 + 90968 x181 + 91706 x182 + 108218 x183 + 101884 x184
       + 91369 x185 + 97042 x186 + 92004 x187 + 100866 x188 + 94211 x189
       + 90636 x190 + 105934 x191 + 102626 x192 + 101002 x193 + 94173 x194
       + 108440 x195 + 95523 x196 + 90030 x197 + 105454 x198 + 98929 x199
       + 106335 x200 + 109610 x201 + 95678 x202 + 93109 x203 + 106347 x204
       + 90317 x205 + 90781 x206 + 91100 x207 + 95687 x208 + 97764 x209
       + 102525 x210 + 99751 x211 + 101251 x212 + 102342 x213 + 105666 x214
       + 98256 x215 + 99462 x216 + 107858 x217 + 103805 x218 + 104452 x219
       + 96714 x220 + 97076 x221 + 108419 x222 + 108135 x223 + 107568 x224
       + 98940 x225 + 93092 x226 + 107245 x227 + 103559 x228 + 99608 x229
       + 98104 x230 + 92984 x231 + 103995 x232 + 107407 x233 + 109309 x234
       + 100694 x235 + 104132 x236 + 100456 x237 + 99638 x238 + 94787 x239
       + 105899 x240 + 91598 x241 + 91632 x242 + 94470 x243 + 108228 x244
       + 102032 x245 + 109743 x246 + 102362 x247 + 98479 x248 + 107046 x249
       + 96255 x250 + 103771 x251 + 91445 x252 + 108700 x253 + 93189 x254
       + 98819 x255 + 92190 x256 + 95113 x257 + 105576 x258 + 96103 x259
       + 99673 x260 + 106478 x261 + 106915 x262 + 96017 x263 + 92606 x264
       + 103829 x265 + 102209 x266 + 96512 x267 + 101851 x268 + 105859 x269
       + 102973 x270 + 92278 x271 + 108606 x272 + 99383 x273 + 93423 x274
       + 99003 x275 + 105258 x276 + 95062 x277 + 102610 x278 + 90619 x279
       + 94136 x280 + 91513 x281 + 103306 x282 + 109349 x283 + 98272 x284
       + 108190 x285 + 95243 x286 + 95890 x287 + 97869 x288 + 90234 x289
       + 97639 x290 + 90185 x291 + 106323 x292 + 96940 x293 + 93934 x294
       + 92060 x295 + 100467 x296 + 99587 x297 + 100301 x298 + 105337 x299
       + 169140 x300 + 18893 x301 + 19991 x302 + 18186 x303 + 20392 x304
       + 21688 x305 + 19444 x306 + 20969 x307 + 20152 x308 + 21601 x309
       + 19421 x310 + 20946 x311 + 19805 x312 + 18857 x313 + 18610 x314
       + 19295 x315 + 18148 x316 + 18951 x317 + 21920 x318 + 20181 x319
       + 19687 x320 + 18161 x321 + 18773 x322 + 18355 x323 + 21446 x324
       + 21744 x325 + 20210 x326 + 21426 x327 + 20523 x328 + 20100 x329
       + 19659 x330 + 20591 x331 + 19746 x332 + 21269 x333 + 18533 x334
       + 21386 x335 + 20259 x336 + 21602 x337 + 21528 x338 + 20164 x339
       + 18769 x340 + 18295 x341 + 21547 x342 + 18561 x343 + 21432 x344
       + 19696 x345 + 20606 x346 + 19111 x347 + 21972 x348 + 19897 x349
       + 18934 x350 + 20458 x351 + 20664 x352 + 21093 x353 + 21617 x354
       + 18283 x355 + 19147 x356 + 18529 x357 + 20748 x358 + 18068 x359
       + 19961 x360
Subject To
 c1:   x10 - x12 - x15 - x16 - x24 - x29 - x42 + x45 + x48  = 0
 c2:   x70 - x72 - x75 - x76 - x84 - x89 - x102 + x105 + x108  = 0
 c3:   x130 - x132 - x135 - x136 - x144 - x149 - x162 + x165 + x168  = 0
 c4:   x190 - x192 - x195 - x196 - x204 - x209 - x222 + x225 + x228  = 0
 c5:   x250 - x252 - x255 - x256 - x264 - x269 - x282 + x285 + x288  = 0
 c6:   x14 + x31 + x38 - x43  = 0
 c7:   x74 + x91 + x98 - x103  = 0
 c8:   x134 + x151 + x158 - x163  = 1
 c9:   x194 + x211 + x218 - x223  = 0
 c10:  x254 + x271 + x278 - x283  = 0
 c11:  - x8 - x17 + x18 + x22 + x24 + x34 - x41 + x51 - x58  = 0
 c12:  - x68 - x77 + x78 + x82 + x84 + x94 - x101 + x111 - x118  = -1
 c13:  - x128 - x137 + x138 + x142 + x144 + x154 - x161 + x171 - x178  = 0
 c14:  - x188 - x197 + x198 + x202 + x204 + x214 - x221 + x231 - x238  = 0
 c15:  - x248 - x257 + x258 + x262 + x264 + x274 - x281 + x291 - x298  = 0
 c16:  - x7 - x21 - x28 + x36 - x45 - x54  = 0
 c17:  - x67 - x81 - x88 + x96 - x105 - x114  = 0
 c18:  - x127 - x141 - x148 + x156 - x165 - x174  = 0
 c19:  - x187 - x201 - x208 + x216 - x225 - x234  = 0
 c20:  - x247 - x261 - x268 + x276 - x285 - x294  = 0
 c21:  - x3 - x10 + x13 + x15 + x19 + x21 - x26 - x38 + x43 - x55  = 0
 c22:  - x63 - x70 + x73 + x75 + x79 + x81 - x86 - x98 + x103 - x115  = 0
 c23:  - x123 - x130 + x133 + x135 + x139 + x141 - x146 - x158 + x163 - x175
        = 0
 c24:  - x183 - x190 + x193 + x195 + x199 + x201 - x206 - x218 + x223 - x235
        = 0
 c25:  - x243 - x250 + x253 + x255 + x259 + x261 - x266 - x278 + x283 - x295
        = 0
 c26:  x11 + x12 - x30 + x44 - x47 + x53 - x60  = 0
 c27:  x71 + x72 - x90 + x104 - x107 + x113 - x120  = 0
 c28:  x131 + x132 - x150 + x164 - x167 + x173 - x180  = -1
 c29:  x191 + x192 - x210 + x224 - x227 + x233 - x240  = 0
 c30:  x251 + x252 - x270 + x284 - x287 + x293 - x300  = 0
 c31:  x4 - x19 - x20 + x30 - x31 - x32 - x35 - x36 + x41 + x42 - x48 + x49
       + x54  = 0
 c32:  x64 - x79 - x80 + x90 - x91 - x92 - x95 - x96 + x101 + x102 - x108
       + x109 + x114  = 0
 c33:  x124 - x139 - x140 + x150 - x151 - x152 - x155 - x156 + x161 + x162
       - x168 + x169 + x174  = 0
 c34:  x184 - x199 - x200 + x210 - x211 - x212 - x215 - x216 + x221 + x222
       - x228 + x229 + x234  = 0
 c35:  x244 - x259 - x260 + x270 - x271 - x272 - x275 - x276 + x281 + x282
       - x288 + x289 + x294  = 0
 c36:  x5 + x20 + x27 + x37 + x46 - x56  = 0
 c37:  x65 + x80 + x87 + x97 + x106 - x116  = 0
 c38:  x125 + x140 + x147 + x157 + x166 - x176  = 0
 c39:  x185 + x200 + x207 + x217 + x226 - x236  = 1
 c40:  x245 + x260 + x267 + x277 + x286 - x296  = 0
 c41:  - x2 + x9 + x39 + x40 - x50 - x57  = 0
 c42:  - x62 + x69 + x99 + x100 - x110 - x117  = 0
 c43:  - x122 + x129 + x159 + x160 - x170 - x177  = 0
 c44:  - x182 + x189 + x219 + x220 - x230 - x237  = 0
 c45:  - x242 + x249 + x279 + x280 - x290 - x297  = 1
 c46:  x23 + x29 + x33 - x34 - x39 - x46 - x52 - x53 - x59 + x60  = -1
 c47:  x83 + x89 + x93 - x94 - x99 - x106 - x112 - x113 - x119 + x120  = 0
 c48:  x143 + x149 + x153 - x154 - x159 - x166 - x172 - x173 - x179 + x180  = 0
 c49:  x203 + x209 + x213 - x214 - x219 - x226 - x232 - x233 - x239 + x240
        = -1
 c50:  x263 + x269 + x273 - x274 - x279 - x286 - x292 - x293 - x299 + x300  = 0
 c51:  x1 + x3 - x25 - x44 - x49 + x50 - x51 + x59  = 0
 c52:  x61 + x63 - x85 - x104 - x109 + x110 - x111 + x119  = 0
 c53:  x121 + x123 - x145 - x164 - x169 + x170 - x171 + x179  = 0
 c54:  x181 + x183 - x205 - x224 - x229 + x230 - x231 + x239  = 0
 c55:  x241 + x243 - x265 - x284 - x289 + x290 - x291 + x299  = 0
 c56:  - x11 + x16 - x22 - x27 + x52 + x58  = 0
 c57:  - x71 + x76 - x82 - x87 + x112 + x118  = 0
 c58:  - x131 + x136 - x142 - x147 + x172 + x178  = 0
 c59:  - x191 + x196 - x202 - x207 + x232 + x238  = 0
 c60:  - x251 + x256 - x262 - x267 + x292 + x298  = 0
 c61:  - x1 + x2 + x6 - x13 + x17 + x25 - x33 - x37 - x40 + x47  = 0
 c62:  - x61 + x62 + x66 - x73 + x77 + x85 - x93 - x97 - x100 + x107  = 0
 c63:  - x121 + x122 + x126 - x133 + x137 + x145 - x153 - x157 - x160 + x167
        = 0
 c64:  - x181 + x182 + x186 - x193 + x197 + x205 - x213 - x217 - x220 + x227
        = 0
 c65:  - x241 + x242 + x246 - x253 + x257 + x265 - x273 - x277 - x280 + x287
        = 0
 c66:  - x4 + x8 - x9 - x14 - x18 - x23 + x28 + x35 + x55 + x57  = 0
 c67:  - x64 + x68 - x69 - x74 - x78 - x83 + x88 + x95 + x115 + x117  = 1
 c68:  - x124 + x128 - x129 - x134 - x138 - x143 + x148 + x155 + x175 + x177
        = 0
 c69:  - x184 + x188 - x189 - x194 - x198 - x203 + x208 + x215 + x235 + x237
        = 0
 c70:  - x244 + x248 - x249 - x254 - x258 - x263 + x268 + x275 + x295 + x297
        = -1
 c71:  - x5 - x6 + x7 + x26 + x32 + x56  = 1
 c72:  - x65 - x66 + x67 + x86 + x92 + x116  = 0
 c73:  - x125 - x126 + x127 + x146 + x152 + x176  = 0
 c74:  - x185 - x186 + x187 + x206 + x212 + x236  = 0
 c75:  - x245 - x246 + x247 + x266 + x272 + x296  = 0
 c76:  4 x1 + 4 x61 + 4 x121 + 4 x181 + 4 x241 - 2 x301 <= 0
 c77:  4 x2 + 4 x62 + 4 x122 + 4 x182 + 4 x242 - 2 x302 <= 0
 c78:  4 x3 + 4 x63 + 4 x123 + 4 x183 + 4 x243 - 2 x303 <= 0
 c79:  4 x4 + 4 x64 + 4 x124 + 4 x184 + 4 x244 - 2 x304 <= 0
 c80:  4 x5 + 4 x65 + 4 x125 + 4 x185 + 4 x245 - 2 x305 <= 0
 c81:  4 x6 + 4 x66 + 4 x126 + 4 x186 + 4 x246 - 2 x306 <= 0
 c82:  4 x7 + 4 x67 + 4 x127 + 4 x187 + 4 x247 - 2 x307 <= 0
 c83:  4 x8 + 4 x68 + 4 x128 + 4 x188 + 4 x248 - 2 x308 <= 0
 c84:  4 x9 + 4 x69 + 4 x129 + 4 x189 + 4 x249 - 2 x309 <= 0
 c85:  4 x10 + 4 x70 + 4 x130 + 4 x190 + 4 x250 - 2 x310 <= 0
 c86:  4 x11 + 4 x71 + 4 x131 + 4 x191 + 4 x251 - 2 x311 <= 0
 c87:  4 x12 + 4 x72 + 4 x132 + 4 x192 + 4 x252 - 2 x312 <= 0
 c88:  4 x13 + 4 x73 + 4 x133 + 4 x193 + 4 x253 - 2 x313 <= 0
 c89:  4 x14 + 4 x74 + 4 x134 + 4 x194 + 4 x254 - 2 x314 <= 0
 c90:  4 x15 + 4 x75 + 4 x135 + 4 x195 + 4 x255 - 2 x315 <= 0
 c91:  4 x16 + 4 x76 + 4 x136 + 4 x196 + 4 x256 - 2 x316 <= 0
 c92:  4 x17 + 4 x77 + 4 x137 + 4 x197 + 4 x257 - 2 x317 <= 0
 c93:  4 x18 + 4 x78 + 4 x138 + 4 x198 + 4 x258 - 2 x318 <= 0
 c94:  4 x19 + 4 x79 + 4 x139 + 4 x199 + 4 x259 - 2 x319 <= 0
 c95:  4 x20 + 4 x80 + 4 x140 + 4 x200 + 4 x260 - 2 x320 <= 0
 c96:  4 x21 + 4 x81 + 4 x141 + 4 x201 + 4 x261 - 2 x321 <= 0
 c97:  4 x22 + 4 x82 + 4 x142 + 4 x202 + 4 x262 - 2 x322 <= 0
 c98:  4 x23 + 4 x83 + 4 x143 + 4 x203 + 4 x263 - 2 x323 <= 0
 c99:  4 x24 + 4 x84 + 4 x144 + 4 x204 + 4 x264 - 2 x324 <= 0
 c100: 4 x25 + 4 x85 + 4 x145 + 4 x205 + 4 x265 - 2 x325 <= 0
 c101: 4 x26 + 4 x86 + 4 x146 + 4 x206 + 4 x266 - 2 x326 <= 0
 c102: 4 x27 + 4 x87 + 4 x147 + 4 x207 + 4 x267 - 2 x327 <= 0
 c103: 4 x28 + 4 x88 + 4 x148 + 4 x208 + 4 x268 - 2 x328 <= 0
 c104: 4 x29 + 4 x89 + 4 x149 + 4 x209 + 4 x269 - 2 x329 <= 0
 c105: 4 x30 + 4 x90 + 4 x150 + 4 x210 + 4 x270 - 2 x330 <= 0
 c106: 4 x31 + 4 x91 + 4 x151 + 4 x211 + 4 x271 - 2 x331 <= 0
 c107: 4 x32 + 4 x92 + 4 x152 + 4 x212 + 4 x272 - 2 x332 <= 0
 c108: 4 x33 + 4 x93 + 4 x153 + 4 x213 + 4 x273 - 2 x333 <= 0
 c109: 4 x34 + 4 x94 + 4 x154 + 4 x214 + 4 x274 - 2 x334 <= 0
 c110: 4 x35 + 4 x95 + 4 x155 + 4 x215 + 4 x275 - 2 x335 <= 0
 c111: 4 x36 + 4 x96 + 4 x156 + 4 x216 + 4 x276 - 2 x336 <= 0
 c112: 4 x37 + 4 x97 + 4 x157 + 4 x217 + 4 x277 - 2 x337 <= 0
 c113: 4 x38 + 4 x98 + 4 x158 + 4 x218 + 4 x278 - 2 x338 <= 0
 c114: 4 x39 + 4 x99 + 4 x159 + 4 x219 + 4 x279 - 2 x339 <= 0
 c115: 4 x40 + 4 x100 + 4 x160 + 4 x220 + 4 x280 - 2 x340 <= 0
 c116: 4 x41 + 4 x101 + 4 x161 + 4 x221 + 4 x281 - 2 x341 <= 0
 c117: 4 x42 + 4 x102 + 4 x162 + 4 x222 + 4 x282 - 2 x342 <= 0
 c118: 4 x43 + 4 x103 + 4 x163 + 4 x223 + 4 x283 - 2 x343 <= 0
 c119: 4 x44 + 4 x104 + 4 x164 + 4 x224 + 4 x284 - 2 x344 <= 0
 c120: 4 x45 + 4 x105 + 4 x165 + 4 x225 + 4 x285 - 2 x345 <= 0
 c121: 4 x46 + 4 x106 + 4 x166 + 4 x226 + 4 x286 - 2 x346 <= 0
 c122: 4 x47 + 4 x107 + 4 x167 + 4 x227 + 4 x287 - 2 x347 <= 0
 c123: 4 x48 + 4 x108 + 4 x168 + 4 x228 + 4 x288 - 2 x348 <= 0
 c124: 4 x49 + 4 x109 + 4 x169 + 4 x229 + 4 x289 - 2 x349 <= 0
 c125: 4 x50 + 4 x110 + 4 x170 + 4 x230 + 4 x290 - 2 x350 <= 0
 c126: 4 x51 + 4 x111 + 4 x171 + 4 x231 + 4 x291 - 2 x351 <= 0
 c127: 4 x52 + 4 x112 + 4 x172 + 4 x232 + 4 x292 - 2 x352 <= 0
 c128: 4 x53 + 4 x113 + 4 x173 + 4 x233 + 4 x293 - 2 x353 <= 0
 c129: 4 x54 + 4 x114 + 4 x174 + 4 x234 + 4 x294 - 2 x354 <= 0
 c130: 4 x55 + 4 x115 + 4 x175 + 4 x235 + 4 x295 - 2 x355 <= 0
 c131: 4 x56 + 4 x116 + 4 x176 + 4 x236 + 4 x296 - 2 x356 <= 0
 c132: 4 x57 + 4 x117 + 4 x177 + 4 x237 + 4 x297 - 2 x357 <= 0
 c133: 4 x58 + 4 x118 + 4 x178 + 4 x238 + 4 x298 - 2 x358 <= 0
 c134: 4 x59 + 4 x119 + 4 x179 + 4 x239 + 4 x299 - 2 x359 <= 0
 c135: 4 x60 + 4 x120 + 4 x180 + 4 x240 + 4 x300 - 2 x360 <= 0
Bounds
 0 <= x1 <= 1
 0 <= x2 <= 1
 0 <= x3 <= 1
 0 <= x4 <= 1
 0 <= x5 <= 1
 0 <= x6 <= 1
 0 <= x7 <= 1
 0 <= x8 <= 1
 0 <= x9 <= 1
 0 <= x10 <= 1
 0 <= x11 <= 1
 0 <= x12 <= 1
 0 <= x13 <= 1
 0 <= x14 <= 1
 0 <= x15 <= 1
 0 <= x16 <= 1
 0 <= x17 <= 1
 0 <= x18 <= 1
 0 <= x19 <= 1
 0 <= x20 <= 1
 0 <= x21 <= 1
 0 <= x22 <= 1
 0 <= x23 <= 1
 0 <= x24 <= 1
 0 <= x25 <= 1
 0 <= x26 <= 1
 0 <= x27 <= 1
 0 <= x28 <= 1
 0 <= x29 <= 1
 0 <= x30 <= 1
 0 <= x31 <= 1
 0 <= x32 <= 1
 0 <= x33 <= 1
 0 <= x34 <= 1
 0 <= x35 <= 1
 0 <= x36 <= 1
 0 <= x37 <= 1
 0 <= x38 <= 1
 0 <= x39 <= 1
 0 <= x40 <= 1
 0 <= x41 <= 1
 0 <= x42 <= 1
 0 <= x43 <= 1
 0 <= x44 <= 1
 0 <= x45 <= 1
 0 <= x46 <= 1
 0 <= x47 <= 1
 0 <= x48 <= 1
 0 <= x49 <= 1
 0 <= x50 <= 1
 0 <= x51 <= 1
 0 <= x52 <= 1
 0 <= x53 <= 1
 0 <= x54 <= 1
 0 <= x55 <= 1
 0 <= x56 <= 1
 0 <= x57 <= 1
 0 <= x58 <= 1
 0 <= x59 <= 1
 0 <= x60 <= 1
 0 <= x61 <= 1
 0 <= x62 <= 1
 0 <= x63 <= 1
 0 <= x64 <= 1
 0 <= x65 <= 1
 0 <= x66 <= 1
 0 <= x67 <= 1
 0 <= x68 <= 1
 0 <= x69 <= 1
 0 <= x70 <= 1
 0 <= x71 <= 1
 0 <= x72 <= 1
 0 <= x73 <= 1
 0 <= x74 <= 1
 0 <= x75 <= 1
 0 <= x76 <= 1
 0 <= x77 <= 1
 0 <= x78 <= 1
 0 <= x79 <= 1
 0 <= x80 <= 1
 0 <= x81 <= 1
 0 <= x82 <= 1
 0 <= x83 <= 1
 0 <= x84 <= 1
 0 <= x85 <= 1
 0 <= x86 <= 1
 0 <= x87 <= 1
 0 <= x88 <= 1
 0 <= x89 <= 1
 0 <= x90 <= 1
 0 <= x91 <= 1
 0 <= x92 <= 1
 0 <= x93 <= 1
 0 <= x94 <= 1
 0 <= x95 <= 1
 0 <= x96 <= 1
 0 <= x97 <= 1
 0 <= x98 <= 1
 0 <= x99 <= 1
 0 <= x100 <= 1
 0 <= x101 <= 1
 0 <= x102 <= 1
 0 <= x103 <= 1
 0 <= x104 <= 1
 0 <= x105 <= 1
 0 <= x106 <= 1
 0 <= x107 <= 1
 0 <= x108 <= 1
 0 <= x109 <= 1
 0 <= x110 <= 1
 0 <= x111 <= 1
 0 <= x112 <= 1
 0 <= x113 <= 1
 0 <= x114 <= 1
 0 <= x115 <= 1
 0 <= x116 <= 1
 0 <= x117 <= 1
 0 <= x118 <= 1
 0 <= x119 <= 1
 0 <= x120 <= 1
 0 <= x121 <= 1
 0 <= x122 <= 1
 0 <= x123 <= 1
 0 <= x124 <= 1
 0 <= x125 <= 1
 0 <= x126 <= 1
 0 <= x127 <= 1
 0 <= x128 <= 1
 0 <= x129 <= 1
 0 <= x130 <= 1
 0 <= x131 <= 1
 0 <= x132 <= 1
 0 <= x133 <= 1
 0 <= x134 <= 1
 0 <= x135 <= 1
 0 <= x136 <= 1
 0 <= x137 <= 1
 0 <= x138 <= 1
 0 <= x139 <= 1
 0 <= x140 <= 1
 0 <= x141 <= 1
 0 <= x142 <= 1
 0 <= x143 <= 1
 0 <= x144 <= 1
 0 <= x145 <= 1
 0 <= x146 <= 1
 0 <= x147 <= 1
 0 <= x148 <= 1
 0 <= x149 <= 1
 0 <= x150 <= 1
 0 <= x151 <= 1
 0 <= x152 <= 1
 0 <= x153 <= 1
 0 <= x154 <= 1
 0 <= x155 <= 1
 0 <= x156 <= 1
 0 <= x157 <= 1
 0 <= x158 <= 1
 0 <= x159 <= 1
 0 <= x160 <= 1
 0 <= x161 <= 1
 0 <= x162 <= 1
 0 <= x163 <= 1
 0 <= x164 <= 1
 0 <= x165 <= 1
 0 <= x166 <= 1
 0 <= x167 <= 1
 0 <= x168 <= 1
 0 <= x169 <= 1
 0 <= x170 <= 1
 0 <= x171 <= 1
 0 <= x172 <= 1
 0 <= x173 <= 1
 0 <= x174 <= 1
 0 <= x175 <= 1
 0 <= x176 <= 1
 0 <= x177 <= 1
 0 <= x178 <= 1
 0 <= x179 <= 1
 0 <= x180 <= 1
 0 <= x181 <= 1
 0 <= x182 <= 1
 0 <= x183 <= 1
 0 <= x184 <= 1
 0 <= x185 <= 1
 0 <= x186 <= 1
 0 <= x187 <= 1
 0 <= x188 <= 1
 0 <= x189 <= 1
 0 <= x190 <= 1
 0 <= x191 <= 1
 0 <= x192 <= 1
 0 <= x193 <= 1
 0 <= x194 <= 1
 0 <= x195 <= 1
 0 <= x196 <= 1
 0 <= x197 <= 1
 0 <= x198 <= 1
 0 <= x199 <= 1
 0 <= x200 <= 1
 0 <= x201 <= 1
 0 <= x202 <= 1
 0 <= x203 <= 1
 0 <= x204 <= 1
 0 <= x205 <= 1
 0 <= x206 <= 1
 0 <= x207 <= 1
 0 <= x208 <= 1
 0 <= x209 <= 1
 0 <= x210 <= 1
 0 <= x211 <= 1
 0 <= x212 <= 1
 0 <= x213 <= 1
 0 <= x214 <= 1
 0 <= x215 <= 1
 0 <= x216 <= 1
 0 <= x217 <= 1
 0 <= x218 <= 1
 0 <= x219 <= 1
 0 <= x220 <= 1
 0 <= x221 <= 1
 0 <= x222 <= 1
 0 <= x223 <= 1
 0 <= x224 <= 1
 0 <= x225 <= 1
 0 <= x226 <= 1
 0 <= x227 <= 1
 0 <= x228 <= 1
 0 <= x229 <= 1
 0 <= x230 <= 1
 0 <= x231 <= 1
 0 <= x232 <= 1
 0 <= x233 <= 1
 0 <= x234 <= 1
 0 <= x235 <= 1
 0 <= x236 <= 1
 0 <= x237 <= 1
 0 <= x238 <= 1
 0 <= x239 <= 1
 0 <= x240 <= 1
 0 <= x241 <= 1
 0 <= x242 <= 1
 0 <= x243 <= 1
 0 <= x244 <= 1
 0 <= x245 <= 1
 0 <= x246 <= 1
 0 <= x247 <= 1
 0 <= x248 <= 1
 0 <= x249 <= 1
 0 <= x250 <= 1
 0 <= x251 <= 1
 0 <= x252 <= 1
 0 <= x253 <= 1
 0 <= x254 <= 1
 0 <= x255 <= 1
 0 <= x256 <= 1
 0 <= x257 <= 1
 0 <= x258 <= 1
 0 <= x259 <= 1
 0 <= x260 <= 1
 0 <= x261 <= 1
 0 <= x262 <= 1
 0 <= x263 <= 1
 0 <= x264 <= 1
 0 <= x265 <= 1
 0 <= x266 <= 1
 0 <= x267 <= 1
 0 <= x268 <= 1
 0 <= x269 <= 1
 0 <= x270 <= 1
 0 <= x271 <= 1
 0 <= x272 <= 1
 0 <= x273 <= 1
 0 <= x274 <= 1
 0 <= x275 <= 1
 0 <= x276 <= 1
 0 <= x277 <= 1
 0 <= x278 <= 1
 0 <= x279 <= 1
 0 <= x280 <= 1
 0 <= x281 <= 1
 0 <= x282 <= 1
 0 <= x283 <= 1
 0 <= x284 <= 1
 0 <= x285 <= 1
 0 <= x286 <= 1
 0 <= x287 <= 1
 0 <= x288 <= 1
 0 <= x289 <= 1
 0 <= x290 <= 1
 0 <= x291 <= 1
 0 <= x292 <= 1
 0 <= x293 <= 1
 0 <= x294 <= 1
 0 <= x295 <= 1
 0 <= x296 <= 1
 0 <= x297 <= 1
 0 <= x298 <= 1
 0 <= x299 <= 1
 0 <= x300 <= 1
 0 <= x301 <= 1
 0 <= x302 <= 1
 0 <= x303 <= 1
 0 <= x304 <= 1
 0 <= x305 <= 1
 0 <= x306 <= 1
 0 <= x307 <= 1
 0 <= x308 <= 1
 0 <= x309 <= 1
 0 <= x310 <= 1
 0 <= x311 <= 1
 0 <= x312 <= 1
 0 <= x313 <= 1
 0 <= x314 <= 1
 0 <= x315 <= 1
 0 <= x316 <= 1
 0 <= x317 <= 1
 0 <= x318 <= 1
 0 <= x319 <= 1
 0 <= x320 <= 1
 0 <= x321 <= 1
 0 <= x322 <= 1
 0 <= x323 <= 1
 0 <= x324 <= 1
 0 <= x325 <= 1
 0 <= x326 <= 1
 0 <= x327 <= 1
 0 <= x328 <= 1
 0 <= x329 <= 1
 0 <= x330 <= 1
 0 <= x331 <= 1
 0 <= x332 <= 1
 0 <= x333 <= 1
 0 <= x334 <= 1
 0 <= x335 <= 1
 0 <= x336 <= 1
 0 <= x337 <= 1
 0 <= x338 <= 1
 0 <= x339 <= 1
 0 <= x340 <= 1
 0 <= x341 <= 1
 0 <= x342 <= 1
 0 <= x343 <= 1
 0 <= x344 <= 1
 0 <= x345 <= 1
 0 <= x346 <= 1
 0 <= x347 <= 1
 0 <= x348 <= 1
 0 <= x349 <= 1
 0 <= x350 <= 1
 0 <= x351 <= 1
 0 <= x352 <= 1
 0 <= x353 <= 1
 0 <= x354 <= 1
 0 <= x355 <= 1
 0 <= x356 <= 1
 0 <= x357 <= 1
 0 <= x358 <= 1
 0 <= x359 <= 1
 0 <= x360 <= 1
Binaries
 x301  x302  x303  x304  x305  x306  x307  x308  x309  x310  x311  x312  x313 
 x314  x315  x316  x317  x318  x319  x320  x321  x322  x323  x324  x325  x326 
 x327  x328  x329  x330  x331  x332  x333  x334  x335  x336  x337  x338  x339 
 x340  x341  x342  x343  x344  x345  x346  x347  x348  x349  x350  x351  x352 
 x353  x354  x355  x356  x357  x358  x359  x360 
End
